c description: Tseitin formula on , with odd charge
c generator: CNFgen (0.9.0)
c copyright: (C) 2012-2020 Massimo Lauria <massimo.lauria@uniroma1.it>
c url: https://massimolauria.net/cnfgen
c
p cnf 40 374
1 2 3 4 5 6 7 8 0
1 2 3 4 5 6 -7 -8 0
1 2 3 4 5 -6 7 -8 0
1 2 3 4 5 -6 -7 8 0
1 2 3 4 -5 6 7 -8 0
1 2 3 4 -5 6 -7 8 0
1 2 3 4 -5 -6 7 8 0
1 2 3 4 -5 -6 -7 -8 0
1 2 3 -4 5 6 7 -8 0
1 2 3 -4 5 6 -7 8 0
1 2 3 -4 5 -6 7 8 0
1 2 3 -4 5 -6 -7 -8 0
1 2 3 -4 -5 6 7 8 0
1 2 3 -4 -5 6 -7 -8 0
1 2 3 -4 -5 -6 7 -8 0
1 2 3 -4 -5 -6 -7 8 0
1 2 -3 4 5 6 7 -8 0
1 2 -3 4 5 6 -7 8 0
1 2 -3 4 5 -6 7 8 0
1 2 -3 4 5 -6 -7 -8 0
1 2 -3 4 -5 6 7 8 0
1 2 -3 4 -5 6 -7 -8 0
1 2 -3 4 -5 -6 7 -8 0
1 2 -3 4 -5 -6 -7 8 0
1 2 -3 -4 5 6 7 8 0
1 2 -3 -4 5 6 -7 -8 0
1 2 -3 -4 5 -6 7 -8 0
1 2 -3 -4 5 -6 -7 8 0
1 2 -3 -4 -5 6 7 -8 0
1 2 -3 -4 -5 6 -7 8 0
1 2 -3 -4 -5 -6 7 8 0
1 2 -3 -4 -5 -6 -7 -8 0
1 -2 3 4 5 6 7 -8 0
1 -2 3 4 5 6 -7 8 0
1 -2 3 4 5 -6 7 8 0
1 -2 3 4 5 -6 -7 -8 0
1 -2 3 4 -5 6 7 8 0
1 -2 3 4 -5 6 -7 -8 0
1 -2 3 4 -5 -6 7 -8 0
1 -2 3 4 -5 -6 -7 8 0
1 -2 3 -4 5 6 7 8 0
1 -2 3 -4 5 6 -7 -8 0
1 -2 3 -4 5 -6 7 -8 0
1 -2 3 -4 5 -6 -7 8 0
1 -2 3 -4 -5 6 7 -8 0
1 -2 3 -4 -5 6 -7 8 0
1 -2 3 -4 -5 -6 7 8 0
1 -2 3 -4 -5 -6 -7 -8 0
1 -2 -3 4 5 6 7 8 0
1 -2 -3 4 5 6 -7 -8 0
1 -2 -3 4 5 -6 7 -8 0
1 -2 -3 4 5 -6 -7 8 0
1 -2 -3 4 -5 6 7 -8 0
1 -2 -3 4 -5 6 -7 8 0
1 -2 -3 4 -5 -6 7 8 0
1 -2 -3 4 -5 -6 -7 -8 0
1 -2 -3 -4 5 6 7 -8 0
1 -2 -3 -4 5 6 -7 8 0
1 -2 -3 -4 5 -6 7 8 0
1 -2 -3 -4 5 -6 -7 -8 0
1 -2 -3 -4 -5 6 7 8 0
1 -2 -3 -4 -5 6 -7 -8 0
1 -2 -3 -4 -5 -6 7 -8 0
1 -2 -3 -4 -5 -6 -7 8 0
-1 2 3 4 5 6 7 -8 0
-1 2 3 4 5 6 -7 8 0
-1 2 3 4 5 -6 7 8 0
-1 2 3 4 5 -6 -7 -8 0
-1 2 3 4 -5 6 7 8 0
-1 2 3 4 -5 6 -7 -8 0
-1 2 3 4 -5 -6 7 -8 0
-1 2 3 4 -5 -6 -7 8 0
-1 2 3 -4 5 6 7 8 0
-1 2 3 -4 5 6 -7 -8 0
-1 2 3 -4 5 -6 7 -8 0
-1 2 3 -4 5 -6 -7 8 0
-1 2 3 -4 -5 6 7 -8 0
-1 2 3 -4 -5 6 -7 8 0
-1 2 3 -4 -5 -6 7 8 0
-1 2 3 -4 -5 -6 -7 -8 0
-1 2 -3 4 5 6 7 8 0
-1 2 -3 4 5 6 -7 -8 0
-1 2 -3 4 5 -6 7 -8 0
-1 2 -3 4 5 -6 -7 8 0
-1 2 -3 4 -5 6 7 -8 0
-1 2 -3 4 -5 6 -7 8 0
-1 2 -3 4 -5 -6 7 8 0
-1 2 -3 4 -5 -6 -7 -8 0
-1 2 -3 -4 5 6 7 -8 0
-1 2 -3 -4 5 6 -7 8 0
-1 2 -3 -4 5 -6 7 8 0
-1 2 -3 -4 5 -6 -7 -8 0
-1 2 -3 -4 -5 6 7 8 0
-1 2 -3 -4 -5 6 -7 -8 0
-1 2 -3 -4 -5 -6 7 -8 0
-1 2 -3 -4 -5 -6 -7 8 0
-1 -2 3 4 5 6 7 8 0
-1 -2 3 4 5 6 -7 -8 0
-1 -2 3 4 5 -6 7 -8 0
-1 -2 3 4 5 -6 -7 8 0
-1 -2 3 4 -5 6 7 -8 0
-1 -2 3 4 -5 6 -7 8 0
-1 -2 3 4 -5 -6 7 8 0
-1 -2 3 4 -5 -6 -7 -8 0
-1 -2 3 -4 5 6 7 -8 0
-1 -2 3 -4 5 6 -7 8 0
-1 -2 3 -4 5 -6 7 8 0
-1 -2 3 -4 5 -6 -7 -8 0
-1 -2 3 -4 -5 6 7 8 0
-1 -2 3 -4 -5 6 -7 -8 0
-1 -2 3 -4 -5 -6 7 -8 0
-1 -2 3 -4 -5 -6 -7 8 0
-1 -2 -3 4 5 6 7 -8 0
-1 -2 -3 4 5 6 -7 8 0
-1 -2 -3 4 5 -6 7 8 0
-1 -2 -3 4 5 -6 -7 -8 0
-1 -2 -3 4 -5 6 7 8 0
-1 -2 -3 4 -5 6 -7 -8 0
-1 -2 -3 4 -5 -6 7 -8 0
-1 -2 -3 4 -5 -6 -7 8 0
-1 -2 -3 -4 5 6 7 8 0
-1 -2 -3 -4 5 6 -7 -8 0
-1 -2 -3 -4 5 -6 7 -8 0
-1 -2 -3 -4 5 -6 -7 8 0
-1 -2 -3 -4 -5 6 7 -8 0
-1 -2 -3 -4 -5 6 -7 8 0
-1 -2 -3 -4 -5 -6 7 8 0
-1 -2 -3 -4 -5 -6 -7 -8 0
9 -10 0
-9 10 0
11 12 -13 0
11 -12 13 0
-11 12 13 0
-11 -12 -13 0
1 9 14 15 16 -17 0
1 9 14 15 -16 17 0
1 9 14 -15 16 17 0
1 9 14 -15 -16 -17 0
1 9 -14 15 16 17 0
1 9 -14 15 -16 -17 0
1 9 -14 -15 16 -17 0
1 9 -14 -15 -16 17 0
1 -9 14 15 16 17 0
1 -9 14 15 -16 -17 0
1 -9 14 -15 16 -17 0
1 -9 14 -15 -16 17 0
1 -9 -14 15 16 -17 0
1 -9 -14 15 -16 17 0
1 -9 -14 -15 16 17 0
1 -9 -14 -15 -16 -17 0
-1 9 14 15 16 17 0
-1 9 14 15 -16 -17 0
-1 9 14 -15 16 -17 0
-1 9 14 -15 -16 17 0
-1 9 -14 15 16 -17 0
-1 9 -14 15 -16 17 0
-1 9 -14 -15 16 17 0
-1 9 -14 -15 -16 -17 0
-1 -9 14 15 16 -17 0
-1 -9 14 15 -16 17 0
-1 -9 14 -15 16 17 0
-1 -9 14 -15 -16 -17 0
-1 -9 -14 15 16 17 0
-1 -9 -14 15 -16 -17 0
-1 -9 -14 -15 16 -17 0
-1 -9 -14 -15 -16 17 0
11 14 18 19 -20 0
11 14 18 -19 20 0
11 14 -18 19 20 0
11 14 -18 -19 -20 0
11 -14 18 19 20 0
11 -14 18 -19 -20 0
11 -14 -18 19 -20 0
11 -14 -18 -19 20 0
-11 14 18 19 20 0
-11 14 18 -19 -20 0
-11 14 -18 19 -20 0
-11 14 -18 -19 20 0
-11 -14 18 19 -20 0
-11 -14 18 -19 20 0
-11 -14 -18 19 20 0
-11 -14 -18 -19 -20 0
12 21 22 23 -24 0
12 21 22 -23 24 0
12 21 -22 23 24 0
12 21 -22 -23 -24 0
12 -21 22 23 24 0
12 -21 22 -23 -24 0
12 -21 -22 23 -24 0
12 -21 -22 -23 24 0
-12 21 22 23 24 0
-12 21 22 -23 -24 0
-12 21 -22 23 -24 0
-12 21 -22 -23 24 0
-12 -21 22 23 -24 0
-12 -21 22 -23 24 0
-12 -21 -22 23 24 0
-12 -21 -22 -23 -24 0
2 -25 0
-2 25 0
26 -27 0
-26 27 0
21 28 -29 0
21 -28 29 0
-21 28 29 0
-21 -28 -29 0
22 30 31 32 33 -34 0
22 30 31 32 -33 34 0
22 30 31 -32 33 34 0
22 30 31 -32 -33 -34 0
22 30 -31 32 33 34 0
22 30 -31 32 -33 -34 0
22 30 -31 -32 33 -34 0
22 30 -31 -32 -33 34 0
22 -30 31 32 33 34 0
22 -30 31 32 -33 -34 0
22 -30 31 -32 33 -34 0
22 -30 31 -32 -33 34 0
22 -30 -31 32 33 -34 0
22 -30 -31 32 -33 34 0
22 -30 -31 -32 33 34 0
22 -30 -31 -32 -33 -34 0
-22 30 31 32 33 34 0
-22 30 31 32 -33 -34 0
-22 30 31 -32 33 -34 0
-22 30 31 -32 -33 34 0
-22 30 -31 32 33 -34 0
-22 30 -31 32 -33 34 0
-22 30 -31 -32 33 34 0
-22 30 -31 -32 -33 -34 0
-22 -30 31 32 33 -34 0
-22 -30 31 32 -33 34 0
-22 -30 31 -32 33 34 0
-22 -30 31 -32 -33 -34 0
-22 -30 -31 32 33 34 0
-22 -30 -31 32 -33 -34 0
-22 -30 -31 -32 33 -34 0
-22 -30 -31 -32 -33 34 0
25 -35 0
-25 35 0
3 18 30 -36 0
3 18 -30 36 0
3 -18 30 36 0
3 -18 -30 -36 0
-3 18 30 36 0
-3 18 -30 -36 0
-3 -18 30 -36 0
-3 -18 -30 36 0
4 26 28 31 37 -38 0
4 26 28 31 -37 38 0
4 26 28 -31 37 38 0
4 26 28 -31 -37 -38 0
4 26 -28 31 37 38 0
4 26 -28 31 -37 -38 0
4 26 -28 -31 37 -38 0
4 26 -28 -31 -37 38 0
4 -26 28 31 37 38 0
4 -26 28 31 -37 -38 0
4 -26 28 -31 37 -38 0
4 -26 28 -31 -37 38 0
4 -26 -28 31 37 -38 0
4 -26 -28 31 -37 38 0
4 -26 -28 -31 37 38 0
4 -26 -28 -31 -37 -38 0
-4 26 28 31 37 38 0
-4 26 28 31 -37 -38 0
-4 26 28 -31 37 -38 0
-4 26 28 -31 -37 38 0
-4 26 -28 31 37 -38 0
-4 26 -28 31 -37 38 0
-4 26 -28 -31 37 38 0
-4 26 -28 -31 -37 -38 0
-4 -26 28 31 37 -38 0
-4 -26 28 31 -37 38 0
-4 -26 28 -31 37 38 0
-4 -26 28 -31 -37 -38 0
-4 -26 -28 31 37 38 0
-4 -26 -28 31 -37 -38 0
-4 -26 -28 -31 37 -38 0
-4 -26 -28 -31 -37 38 0
5 13 23 32 -37 0
5 13 23 -32 37 0
5 13 -23 32 37 0
5 13 -23 -32 -37 0
5 -13 23 32 37 0
5 -13 23 -32 -37 0
5 -13 -23 32 -37 0
5 -13 -23 -32 37 0
-5 13 23 32 37 0
-5 13 23 -32 -37 0
-5 13 -23 32 -37 0
-5 13 -23 -32 37 0
-5 -13 23 32 -37 0
-5 -13 23 -32 37 0
-5 -13 -23 32 37 0
-5 -13 -23 -32 -37 0
6 10 15 -27 0
6 10 -15 27 0
6 -10 15 27 0
6 -10 -15 -27 0
-6 10 15 27 0
-6 10 -15 -27 0
-6 -10 15 -27 0
-6 -10 -15 27 0
7 16 -39 0
7 -16 39 0
-7 16 39 0
-7 -16 -39 0
8 19 24 33 35 -40 0
8 19 24 33 -35 40 0
8 19 24 -33 35 40 0
8 19 24 -33 -35 -40 0
8 19 -24 33 35 40 0
8 19 -24 33 -35 -40 0
8 19 -24 -33 35 -40 0
8 19 -24 -33 -35 40 0
8 -19 24 33 35 40 0
8 -19 24 33 -35 -40 0
8 -19 24 -33 35 -40 0
8 -19 24 -33 -35 40 0
8 -19 -24 33 35 -40 0
8 -19 -24 33 -35 40 0
8 -19 -24 -33 35 40 0
8 -19 -24 -33 -35 -40 0
-8 19 24 33 35 40 0
-8 19 24 33 -35 -40 0
-8 19 24 -33 35 -40 0
-8 19 24 -33 -35 40 0
-8 19 -24 33 35 -40 0
-8 19 -24 33 -35 40 0
-8 19 -24 -33 35 40 0
-8 19 -24 -33 -35 -40 0
-8 -19 24 33 35 -40 0
-8 -19 24 33 -35 40 0
-8 -19 24 -33 35 40 0
-8 -19 24 -33 -35 -40 0
-8 -19 -24 33 35 40 0
-8 -19 -24 33 -35 -40 0
-8 -19 -24 -33 35 -40 0
-8 -19 -24 -33 -35 40 0
17 -34 0
-17 34 0
20 29 36 38 39 -40 0
20 29 36 38 -39 40 0
20 29 36 -38 39 40 0
20 29 36 -38 -39 -40 0
20 29 -36 38 39 40 0
20 29 -36 38 -39 -40 0
20 29 -36 -38 39 -40 0
20 29 -36 -38 -39 40 0
20 -29 36 38 39 40 0
20 -29 36 38 -39 -40 0
20 -29 36 -38 39 -40 0
20 -29 36 -38 -39 40 0
20 -29 -36 38 39 -40 0
20 -29 -36 38 -39 40 0
20 -29 -36 -38 39 40 0
20 -29 -36 -38 -39 -40 0
-20 29 36 38 39 40 0
-20 29 36 38 -39 -40 0
-20 29 36 -38 39 -40 0
-20 29 36 -38 -39 40 0
-20 29 -36 38 39 -40 0
-20 29 -36 38 -39 40 0
-20 29 -36 -38 39 40 0
-20 29 -36 -38 -39 -40 0
-20 -29 36 38 39 -40 0
-20 -29 36 38 -39 40 0
-20 -29 36 -38 39 40 0
-20 -29 36 -38 -39 -40 0
-20 -29 -36 38 39 40 0
-20 -29 -36 38 -39 -40 0
-20 -29 -36 -38 39 -40 0
-20 -29 -36 -38 -39 40 0